formal_verification/runs/model_eval_v7_100/case_070/run/model/design_smt2.smt2
; SMT-LIBv2 description generated by Yosys 0.64+40 (git sha1 90b906c4f, clang++ 18.1.8 -fPIC -O3)
; yosys-smt2-module vert_formal_wrap
(declare-sort |vert_formal_wrap_s| 0)
(declare-fun |vert_formal_wrap_is| (|vert_formal_wrap_s|) Bool)
; yosys-smt2-wire auth_14 32
(define-fun |vert_formal_wrap_n auth_14| ((state |vert_formal_wrap_s|)) (_ BitVec 32) #b00000000000000000000000000000000)
; yosys-smt2-wire cfg_14 32
(define-fun |vert_formal_wrap_n cfg_14| ((state |vert_formal_wrap_s|)) (_ BitVec 32) #b00000000000000000000000000000000)
; yosys-smt2-wire chip_17 32
(define-fun |vert_formal_wrap_n chip_17| ((state |vert_formal_wrap_s|)) (_ BitVec 32) #b00000000000000000000000000000000)
; yosys-smt2-wire chip_4 32
(define-fun |vert_formal_wrap_n chip_4| ((state |vert_formal_wrap_s|)) (_ BitVec 32) #b00000000000000000000000000000000)
; yosys-smt2-wire core_1 32
(define-fun |vert_formal_wrap_n core_1| ((state |vert_formal_wrap_s|)) (_ BitVec 32) #b00000000000000000000000000000000)
; yosys-smt2-wire core_11 32
(define-fun |vert_formal_wrap_n core_11| ((state |vert_formal_wrap_s|)) (_ BitVec 32) #b00000000000000000000000000000000)
; yosys-smt2-wire core_3 32
(define-fun |vert_formal_wrap_n core_3| ((state |vert_formal_wrap_s|)) (_ BitVec 32) #b00000000000000000000000000000000)
; yosys-smt2-wire data_4 32
(define-fun |vert_formal_wrap_n data_4| ((state |vert_formal_wrap_s|)) (_ BitVec 32) #b00000000000000000000000000000000)
; yosys-smt2-wire data_8 32
(define-fun |vert_formal_wrap_n data_8| ((state |vert_formal_wrap_s|)) (_ BitVec 32) #b00000000000000000000000000000000)
; yosys-smt2-wire err_18 32
(define-fun |vert_formal_wrap_n err_18| ((state |vert_formal_wrap_s|)) (_ BitVec 32) #b00000000000000000000000000000000)
; yosys-smt2-wire err_60 32
(define-fun |vert_formal_wrap_n err_60| ((state |vert_formal_wrap_s|)) (_ BitVec 32) #b00000000000000000000000000000000)
; yosys-smt2-wire fsm_20 32
(define-fun |vert_formal_wrap_n fsm_20| ((state |vert_formal_wrap_s|)) (_ BitVec 32) #b00000000000000000000000000000000)
; yosys-smt2-wire hw_13 32
(define-fun |vert_formal_wrap_n hw_13| ((state |vert_formal_wrap_s|)) (_ BitVec 32) #b00000000000000000000000000000000)
; yosys-smt2-wire hw_196 32
(define-fun |vert_formal_wrap_n hw_196| ((state |vert_formal_wrap_s|)) (_ BitVec 32) #b00000000000000000000000000000000)
; yosys-smt2-wire hw_5 32
(define-fun |vert_formal_wrap_n hw_5| ((state |vert_formal_wrap_s|)) (_ BitVec 32) #b00000000000000000000000000000000)
; yosys-smt2-wire reg_15 32
(define-fun |vert_formal_wrap_n reg_15| ((state |vert_formal_wrap_s|)) (_ BitVec 32) #b00000000000000000000000000000000)
; yosys-smt2-wire reg_16 32
(define-fun |vert_formal_wrap_n reg_16| ((state |vert_formal_wrap_s|)) (_ BitVec 32) #b00000000000000000000000000000000)
; yosys-smt2-wire rst 1
(define-fun |vert_formal_wrap_n rst| ((state |vert_formal_wrap_s|)) Bool false)
; yosys-smt2-wire rst_12 32
(define-fun |vert_formal_wrap_n rst_12| ((state |vert_formal_wrap_s|)) (_ BitVec 32) #b00000000000000000000000000000000)
; yosys-smt2-wire rst_16 32
(define-fun |vert_formal_wrap_n rst_16| ((state |vert_formal_wrap_s|)) (_ BitVec 32) #b00000000000000000000000000000000)
; yosys-smt2-wire rst_5 32
(define-fun |vert_formal_wrap_n rst_5| ((state |vert_formal_wrap_s|)) (_ BitVec 32) #b00000000000000000000000000000000)
; yosys-smt2-wire rx_14 32
(define-fun |vert_formal_wrap_n rx_14| ((state |vert_formal_wrap_s|)) (_ BitVec 32) #b00000000000000000000000000000000)
; yosys-smt2-wire tx_12 32
(define-fun |vert_formal_wrap_n tx_12| ((state |vert_formal_wrap_s|)) (_ BitVec 32) #b00000000000000000000000000000000)
; yosys-smt2-wire tx_16 32
(define-fun |vert_formal_wrap_n tx_16| ((state |vert_formal_wrap_s|)) (_ BitVec 32) #b00000000000000000000000000000000)
; yosys-smt2-assert 0 _witness_.check_assert_vert_formal_wrap_sv_100_60 vert_formal_wrap.sv:100.5-100.80
(define-fun |vert_formal_wrap_a 0| ((state |vert_formal_wrap_s|)) Bool (or true (not true))) ; _witness_.check_assert_vert_formal_wrap_sv_100_60
; yosys-smt2-assert 1 _witness_.check_assert_vert_formal_wrap_sv_101_68 vert_formal_wrap.sv:101.5-101.113
(define-fun |vert_formal_wrap_a 1| ((state |vert_formal_wrap_s|)) Bool (or true (not true))) ; _witness_.check_assert_vert_formal_wrap_sv_101_68
; yosys-smt2-assert 2 _witness_.check_assert_vert_formal_wrap_sv_102_79 vert_formal_wrap.sv:102.5-102.151
(define-fun |vert_formal_wrap_a 2| ((state |vert_formal_wrap_s|)) Bool (or true (not true))) ; _witness_.check_assert_vert_formal_wrap_sv_102_79
; yosys-smt2-assert 3 _witness_.check_assert_vert_formal_wrap_sv_103_94 vert_formal_wrap.sv:103.5-103.151
(define-fun |vert_formal_wrap_a 3| ((state |vert_formal_wrap_s|)) Bool (or true (not true))) ; _witness_.check_assert_vert_formal_wrap_sv_103_94
; yosys-smt2-assert 4 _witness_.check_assert_vert_formal_wrap_sv_96_15 vert_formal_wrap.sv:96.5-96.76
(define-fun |vert_formal_wrap_a 4| ((state |vert_formal_wrap_s|)) Bool (or true (not true))) ; _witness_.check_assert_vert_formal_wrap_sv_96_15
; yosys-smt2-assert 5 _witness_.check_assert_vert_formal_wrap_sv_97_22 vert_formal_wrap.sv:97.5-97.101
(define-fun |vert_formal_wrap_a 5| ((state |vert_formal_wrap_s|)) Bool (or true (not true))) ; _witness_.check_assert_vert_formal_wrap_sv_97_22
; yosys-smt2-assert 6 _witness_.check_assert_vert_formal_wrap_sv_98_31 vert_formal_wrap.sv:98.5-98.147
(define-fun |vert_formal_wrap_a 6| ((state |vert_formal_wrap_s|)) Bool (or true (not true))) ; _witness_.check_assert_vert_formal_wrap_sv_98_31
; yosys-smt2-assert 7 _witness_.check_assert_vert_formal_wrap_sv_99_45 vert_formal_wrap.sv:99.5-99.150
(define-fun |vert_formal_wrap_a 7| ((state |vert_formal_wrap_s|)) Bool (or true (not true))) ; _witness_.check_assert_vert_formal_wrap_sv_99_45
; yosys-smt2-assume 0 _witness_.check_assume_vert_formal_wrap_sv_95_13 vert_formal_wrap.sv:95.5-95.18
(define-fun |vert_formal_wrap_u 0| ((state |vert_formal_wrap_s|)) Bool (or true (not true))) ; _witness_.check_assume_vert_formal_wrap_sv_95_13
(define-fun |vert_formal_wrap_a| ((state |vert_formal_wrap_s|)) Bool (and
  (|vert_formal_wrap_a 0| state)
  (|vert_formal_wrap_a 1| state)
  (|vert_formal_wrap_a 2| state)
  (|vert_formal_wrap_a 3| state)
  (|vert_formal_wrap_a 4| state)
  (|vert_formal_wrap_a 5| state)
  (|vert_formal_wrap_a 6| state)
  (|vert_formal_wrap_a 7| state)
))
(define-fun |vert_formal_wrap_u| ((state |vert_formal_wrap_s|)) Bool 
  (|vert_formal_wrap_u 0| state)
)
(define-fun |vert_formal_wrap_i| ((state |vert_formal_wrap_s|)) Bool true)
(define-fun |vert_formal_wrap_h| ((state |vert_formal_wrap_s|)) Bool true)
(define-fun |vert_formal_wrap_t| ((state |vert_formal_wrap_s|) (next_state |vert_formal_wrap_s|)) Bool true) ; end of module vert_formal_wrap
; yosys-smt2-topmod vert_formal_wrap
; end of yosys output
